NAME : LC2_6_3
TYPE : PDPTW
DIMENSION : 150
EDGE_WEIGHT_TYPE : EXACT_2D
NODE_COORD_SECTION
1 1 0
2 150 0
3 0 0
4 -30 0
5 0 2
6 0 3621
7 3 122
8 3408 90
9 165 85
10 90 323
11 198 20
12 0 581
13 30 0
14 167 7
15 1247 1407
16 8 58
17 3604 90
18 243 35
19 90 324
20 45 20
21 0 130
22 30 0
23 32 12
24 0 3596
25 13 279
26 798 90
27 97 40
28 90 39
29 52 20
30 0 481
31 -20 0
32 0 17
33 1844 2004
34 18 64
35 789 90
36 141 231
37 90 0
38 211 -20
39 24 0
40 20 0
41 483 22
42 0 3683
43 23 66
44 3071 90
45 83 219
46 90 0
47 210 20
48 0 253
49 -10 0
50 0 27
51 0 3611
52 28 165
53 3550 90
54 117 262
55 90 282
56 49 20
57 0 93
58 -20 0
59 0 32
60 2344 2504
61 33 182
62 3637 90
63 239 181
64 90 0
65 114 10
66 0 562
67 20 1726
68 263 37
69 0 3644
70 38 142
71 3657 90
72 102 51
73 90 0
74 62 10
75 0 490
76 -10 2980
77 0 42
78 1874 2034
79 43 244
80 2639 90
81 125 23
82 90 314
83 23 -30
84 49 0
85 20 320
86 194 47
87 0 3603
88 48 262
89 3571 90
90 75 28
91 90 0
92 63 10
93 0 591
94 -30 0
95 0 52
96 0 3686
97 53 179
98 3633 90
99 154 257
100 90 471
101 38 10
102 0 190
103 -30 465
104 0 57
105 3149 3309
106 58 28
107 397 90
108 25 150
109 90 0
110 32 -30
111 523 0
112 -20 983
113 0 62
114 0 3572
115 63 186
116 229 90
117 252 60
118 90 174
119 10 -10
120 197 0
121 20 0
122 328 67
123 658 818
124 68 101
125 2537 90
126 103 35
127 90 0
128 244 -30
129 533 0
130 -10 0
131 0 72
132 2750 2910
133 73 74
134 2296 0
135 222 160
136 90 0
137 163 -20
138 351 0
139 -20 2671
140 0 77
141 2569 2729
142 78 17
143 3592 90
144 203 200
145 90 0
146 137 10
147 0 418
148 10 0
149 131 82
150 0 3604
PICKUP_AND_DELIVERY_SECTION
1 0 0 0 0 0 0
2 0 0 0 0 3815 0
3 0 0 0 0 0 248
4 0 0 0 0 90 90
5 0 0 0 0 221 221
6 0 0 0 0 0 0
7 0 0 0 0 -20 -20
8 0 0 0 0 0 0
9 0 0 0 0 0 0
10 0 0 0 0 5 0
11 0 0 0 0 970 970
12 0 0 0 0 55 55
13 0 0 0 0 90 90
14 0 0 0 0 70 70
15 0 0 0 0 0 0
16 0 0 0 0 -20 -20
17 0 0 0 0 0 0
18 0 0 0 0 0 0
19 0 0 0 0 10 0
20 0 0 0 0 579 579
21 0 0 0 0 30 30
22 0 0 0 0 90 90
23 0 0 0 0 27 27
24 0 0 0 0 0 0
25 0 0 0 0 10 10
26 0 0 0 0 387 0
27 0 0 0 0 514 514
28 0 0 0 0 15 0
29 0 0 0 0 3561 0
30 0 0 0 0 226 226
31 0 0 0 0 90 90
32 0 0 0 0 21 21
33 0 0 0 0 0 0
34 0 0 0 0 20 20
35 0 0 0 0 221 0
36 0 0 0 0 0 0
37 0 0 0 0 20 20
38 0 0 0 0 3163 3163
39 0 0 0 0 50 50
40 0 0 0 0 90 90
41 0 0 0 0 178 178
42 0 0 0 0 191 191
43 0 0 0 0 -10 -10
44 0 0 0 0 0 0
45 0 0 0 0 106 106
46 0 0 0 0 25 25
47 0 0 0 0 220 220
48 0 0 0 0 173 173
49 0 0 0 0 90 90
50 0 0 0 0 180 180
51 0 0 0 0 0 0
52 0 0 0 0 -10 -10
53 0 0 0 0 0 0
54 0 0 0 0 2289 2289
55 0 0 0 0 30 0
56 0 0 0 0 3609 0
57 0 0 0 0 176 176
58 0 0 0 0 90 90
59 0 0 0 0 46 46
60 0 0 0 0 11 11
61 0 0 0 0 -30 -30
62 0 0 0 0 0 0
63 0 0 0 0 94 94
64 0 0 0 0 35 35
65 0 0 0 0 700 700
66 0 0 0 0 34 34
67 0 0 0 0 90 90
68 0 0 0 0 231 231
69 0 0 0 0 0 0
70 0 0 0 0 20 20
71 0 0 0 0 53 0
72 0 0 0 0 110 110
73 0 0 0 0 40 40
74 0 0 0 0 3601 0
75 0 0 0 0 261 261
76 0 0 0 0 90 90
77 0 0 0 0 146 146
78 0 0 0 0 0 0
79 0 0 0 0 10 10
80 0 0 0 0 437 0
81 0 0 0 0 2296 2296
82 0 0 0 0 45 0
83 0 0 0 0 3521 3521
84 0 0 0 0 92 92
85 0 0 0 0 90 90
86 0 0 0 0 272 272
87 0 0 0 0 0 0
88 0 0 0 0 -20 -20
89 0 0 0 0 0 0
90 0 0 0 0 1373 1373
91 0 0 0 0 50 50
92 0 0 0 0 3634 0
93 0 0 0 0 224 224
94 0 0 0 0 90 90
95 0 0 0 0 116 116
96 0 0 0 0 0 0
97 0 0 0 0 -20 -20
98 0 0 0 0 0 0
99 0 0 0 0 0 0
100 0 0 0 0 55 0
101 0 0 0 0 3582 0
102 0 0 0 0 83 83
103 0 0 0 0 90 90
104 0 0 0 0 201 201
105 0 0 0 0 529 529
106 0 0 0 0 30 30
107 0 0 0 0 143 0
108 0 0 0 0 0 0
109 0 0 0 0 60 60
110 0 0 0 0 3563 0
111 0 0 0 0 67 67
112 0 0 0 0 90 90
113 0 0 0 0 50 50
114 0 0 0 0 0 0
115 0 0 0 0 10 10
116 0 0 0 0 486 0
117 0 0 0 0 0 0
118 0 0 0 0 65 0
119 0 0 0 0 2126 2126
120 0 0 0 0 239 239
121 0 0 0 0 90 90
122 0 0 0 0 102 102
123 0 0 0 0 0 0
124 0 0 0 0 30 30
125 0 0 0 0 408 0
126 0 0 0 0 0 0
127 0 0 0 0 70 70
128 0 0 0 0 1029 1029
129 0 0 0 0 231 231
130 0 0 0 0 90 90
131 0 0 0 0 114 114
132 0 0 0 0 0 0
133 0 0 0 0 40 40
134 0 0 0 0 606 0
135 0 0 0 0 856 856
136 0 0 0 0 75 75
137 0 0 0 0 3613 0
138 0 0 0 0 125 125
139 0 0 0 0 90 90
140 0 0 0 0 203 203
141 0 0 0 0 112 112
142 0 0 0 0 20 20
143 0 0 0 0 276 0
144 0 0 0 0 0 0
145 0 0 0 0 80 80
146 0 0 0 0 595 595
147 0 0 0 0 263 263
148 0 0 0 0 90 90
149 0 0 0 0 137 137
150 0 0 0 0 0 0
DEPOT_SECTION
1 
-1
EOF
